&CONTROL
   calculation      = 'scf'
   restart_mode     = 'from_scratch'
   tprnfor          = .true.
   outdir           = './outdir'
   pseudo_dir       = '/home/sp0421/q-e/pseudo'
/
&SYSTEM
   ibrav            = 0
   ecutwfc          = 110
   ecutrho          = 440
   occupations      = 'smearing'
   degauss          = 0.01
   smearing         = 'gaussian'
   input_dft        = 'SCAN'
   ntyp             = 4
   nat              = 474
/
&ELECTRONS
   electron_maxstep = 200
   conv_thr         = 1e-06
   mixing_beta      = 0.1
   mixing_ndim      = 10
   diagonalization  = 'david'
/
&IONS
/
&CELL
/
&FCP
/
&RISM
/
ATOMIC_SPECIES
O 15.999 O.tm.pbe.UPF
Ti 47.867 Ti.pbe-sp-rrkj.UPF
C 12.011 C_ONCV_PBE-1.2.upf
H 1.008 H.tm.pbe.UPF

K_POINTS gamma

CELL_PARAMETERS angstrom
PUT CELL HERE

ATOMIC_POSITIONS angstrom
PUT COORDINATES HERE
